003 003 004 004 005 004 006 007 009 009 011 010 017 013 016 009 008 013 015 007 010 009 020 017 022 011 013 015 013 012 011
002 002 002 003 004 004 009 005 005 006 009 009 013 011 020 012 019 012 012 012 011 016 019 017 024 017 021 021 015 014 009
003 001 001 002 003 003 003 004 004 005 006 006 009 009 012 011 012 012 014 015 011 015 014 016 024 014 019 021 015 020 012
003 002 001 002 003 004 003 003 003 004 005 007 007 007 009 013 005 010 013 016 011 013 015 013 021 009 016 023 018 012 012
003 001 002 002 003 003 003 003 003 004 004 004 007 009 010 007 007 005 008 013 010 009 014 015 020 017 013 017 033 023 013
003 002 002 003 003 004 003 003 003 003 004 004 006 006 008 007 008 006 005 007 010 009 009 013 019 013 012 019 026 021 012
002 002 002 002 003 002 002 003 003 003 003 003 005 006 005 007 007 006 005 007 011 007 009 009 016 014 014 020 025 015 010
001 001 001 002 002 002 002 003 002 003 003 003 003 004 004 006 007 006 011 010 014 012 010 010 012 014 015 023 026 009 008
000 001 001 002 002 002 001 002 003 002 004 004 003 002 004 005 008 010 006 009 020 004 006 010 011 014 017 023 019 007 005
000 000 001 003 002 002 003 002 003 004 004 003 002 002 004 005 008 009 009 011 012 006 007 008 013 011 017 017 015 008 005
001 001 001 002 001 003 002 001 002 002 004 003 002 003 005 006 007 008 012 009 007 007 006 008 007 010 013 014 009 010 006
001 001 001 001 001 002 003 003 003 006 004 003 003 002 006 006 015 011 017 009 006 006 006 008 007 008 009 008 009 010 010
001 001 000 001 001 002 004 004 004 006 004 003 003 003 005 008 028 020 014 015 007 006 006 005 005 007 008 008 012 010 012
001 001 001 000 000 001 003 003 008 006 005 004 003 002 004 014 029 023 015 026 012 003 004 004 004 004 007 008 011 010 013
001 001 001 001 001 002 001 002 004 005 004 005 005 003 005 015 030 007 006 010 008 002 002 002 004 004 007 007 011 009 006
001 001 001 001 001 002 002 001 002 003 005 005 009 003 007 010 021 005 003 005 004 002 005 001 003 004 007 006 009 010 006
001 001 001 002 003 001 001 001 002 003 008 007 007 006 008 007 012 002 002 002 001 001 001 002 001 004 004 007 007 011 006
001 001 001 002 003 002 001 002 001 002 004 007 005 006 006 006 003 002 001 002 001 002 002 001 001 004 004 006 008 007 005
001 000 001 003 002 001 002 004 003 001 004 003 004 005 005 004 002 001 001 002 001 002 002 -99 002 005 005 005 007 004 005
002 001 002 003 003 005 004 003 004 004 002 002 003 003 003 002 002 001 001 001 000 002 001 -99 002 005 005 005 007 004 005
003 003 003 005 003 007 003 003 006 004 005 007 005 003 002 002 002 001 001 000 000 001 000 -99 -99 -99 -99 -99 -99 -99 -99
004 003 003 007 006 006 002 004 007 005 009 010 005 003 006 004 001 001 001 001 004 002 001 -99 -99 -99 -99 -99 -99 -99 -99
005 004 005 011 007 003 001 004 007 007 009 009 006 005 007 003 001 001 001 001 005 002 001 -99 -99 -99 -99 -99 -99 -99 -99
008 005 005 008 007 002 001 002 002 002 003 005 007 006 007 003 001 001 001 003 005 002 001 -99 -99 -99 -99 -99 -99 -99 -99
010 003 003 003 003 001 001 001 001 000 001 002 007 008 012 003 003 001 003 005 004 003 002 -99 -99 -99 -99 -99 -99 -99 -99
005 002 002 004 002 002 000 001 001 001 001 001 005 006 015 004 005 003 004 005 005 003 003 -99 -99 -99 -99 -99 -99 -99 -99
004 001 001 002 002 001 001 001 001 001 001 001 004 004 015 003 017 007 006 005 005 005 013 -99 -99 -99 -99 -99 -99 -99 003
003 002 001 001 001 002 002 000 000 002 001 005 008 021 017 037 040 017 006 007 006 009 019 026 017 -99 -99 -99 022 006 004
003 002 001 000 001 001 002 000 000 002 001 006 009 031 034 046 040 028 011 010 012 018 050 042 028 025 039 040 031 017 013
003 001 002 001 002 001 001 000 001 002 001 008 016 046 039 039 045 046 022 013 014 014 061 075 058 044 038 052 056 058 035
003 004 001 002 002 001 000 000 002 000 003 014 021 014 019 023 039 032 026 015 010 006 031 054 036 029 035 058 085 075 066
003 002 002 002 000 000 000 000 000 000 005 023 022 017 010 008 022 012 011 009 008 004 026 031 017 024 028 069 066 061 065
002 001 001 001 000 000 000 000 000 000 001 015 012 012 004 004 009 005 009 012 008 004 009 014 012 033 052 050 045 051 064
001 001 001 001 000 000 000 000 000 002 001 004 003 002 002 002 005 005 008 008 008 007 005 007 012 015 021 022 028 021 053
001 001 004 002 001 000 000 000 000 004 004 005 003 001 002 002 004 010 009 015 016 008 004 006 012 017 015 019 011 012 042
002 004 003 003 001 000 000 000 001 006 006 008 005 003 003 003 003 007 010 014 012 007 003 006 007 004 013 005 006 006 020
002 005 003 001 000 000 000 000 000 001 004 008 005 004 003 003 004 009 007 013 007 004 003 002 007 006 006 004 003 003 006
002 003 003 001 000 000 000 000 000 000 000 003 002 002 006 004 004 003 003 007 006 003 005 005 007 004 006 003 004 005 004
001 002 004 002 002 001 000 000 000 000 000 000 001 002 007 005 003 004 003 003 006 003 005 007 010 005 003 003 005 007 004
001 001 004 004 003 003 002 001 000 000 000 000 001 003 004 003 004 006 005 004 013 007 005 007 009 003 001 003 005 006 005
000 001 004 004 005 002 001 002 001 000 000 002 001 000 000 002 005 016 014 015 023 008 006 003 001 001 001 003 005 006 004
000 000 002 006 004 001 001 002 003 001 002 005 003 001 001 002 005 008 011 034 030 009 006 003 001 000 001 001 003 004 003
000 000 002 005 002 001 002 001 002 003 006 007 006 005 004 004 004 006 006 054 037 010 006 002 002 001 001 000 001 003 003
000 000 001 000 001 001 001 001 001 001 005 007 007 012 010 006 001 002 004 022 019 012 007 006 004 003 002 002 002 004 003
000 000 000 000 000 000 000 000 000 001 003 009 008 008 009 008 001 000 002 007 009 007 006 009 015 014 010 004 003 003 002
000 000 000 000 000 000 000 000 000 001 003 004 005 010 003 002 001 000 001 009 003 007 018 024 045 035 016 007 003 002 001
000 000 000 001 001 000 000 000 000 002 003 003 005 009 003 001 001 001 002 003 001 006 028 056 092 048 018 008 003 002 000
000 001 001 001 001 000 000 000 001 002 004 005 010 006 003 001 001 001 001 001 001 006 031 052 051 077 036 021 005 003 001
002 001 002 002 001 000 000 000 000 001 003 004 007 004 002 001 001 001 001 000 000 000 009 035 071 055 048 024 010 021 004
002 001 001 002 002 001 002 001 000 000 000 002 002 002 001 001 001 000 001 000 000 000 007 013 039 062 053 028 054 025 005
000 000 006 006 002 004 003 001 000 000 000 000 000 001 001 001 001 001 000 000 000 001 003 008 032 048 037 056 042 023 004
000 001 003 004 004 004 002 001 000 000 000 000 000 000 000 001 000 001 000 000 000 001 001 006 010 018 021 023 024 017 005
000 000 001 002 003 005 004 002 001 000 001 000 000 000 001 001 000 001 000 000 000 000 000 000 001 010 008 016 016 003 003
000 000 001 001 003 002 006 004 001 000 000 000 000 000 001 000 000 001 000 000 000 000 -99 000 001 001 002 010 007 002 003
000 000 001 003 006 005 001 001 002 001 000 000 000 000 000 000 001 001 000 000 000 -99 -99 000 -99 000 000 001 001 001 001
